33
[[-1, 0, 36584, 0, 0, 29973, 18416, 0, 0, 0, 0, 0, 0, 45521, 0, 0, 0, 0, 0, 43648, 0, 42463, 0, 35334, 0, 0, 0, 0, 39202, 31263, 23637, 0, 0],[0, -1, 0, 0, 0, 0, 0, 0, 0, 0, 0, 0, 0, 0, 0, 0, 0, 0, 10109, 0, 0, 0, 0, 0, 37256, 0, 0, 0, 25315, 0, 0, 0, 45063],[36584, 0, -1, 0, 0, 0, 0, 37084, 0, 22312, 20486, 0, 28588, 0, 0, 0, 0, 0, 0, 0, 0, 0, 23569, 0, 0, 0, 0, 0, 0, 0, 0, 20397, 0],[0, 0, 0, -1, 0, 0, 22009, 0, 0, 45977, 0, 0, 0, 41577, 26461, 0, 0, 21042, 42084, 0, 0, 0, 0, 43312, 0, 0, 0, 39530, 15038, 0, 0, 0, 36684],[0, 0, 0, 0, -1, 21922, 0, 0, 0, 0, 0, 0, 0, 42789, 0, 18194, 0, 0, 0, 0, 0, 0, 0, 37618, 0, 18750, 0, 0, 0, 46162, 29418, 0, 0],[29973, 0, 0, 0, 21922, -1, 0, 0, 0, 0, 0, 0, 30432, 0, 0, 0, 0, 0, 0, 0, 0, 0, 0, 0, 0, 0, 29831, 0, 0, 32350, 0, 0, 14306],[18416, 0, 0, 22009, 0, 0, -1, 0, 43243, 0, 0, 0, 16211, 0, 0, 29512, 0, 32962, 0, 45600, 0, 42066, 0, 0, 0, 0, 0, 14342, 0, 0, 5272, 30123, 0],[0, 0, 37084, 0, 0, 0, 0, -1, 0, 35522, 45741, 0, 16759, 0, 0, 0, 0, 0, 0, 0, 0, 40574, 0, 41494, 0, 0, 0, 0, 0, 0, 0, 0, 37534],[0, 0, 0, 0, 0, 0, 43243, 0, -1, 0, 26226, 44467, 9169, 0, 0, 0, 23793, 19499, 36947, 28021, 0, 0, 30310, 0, 0, 0, 0, 0, 0, 34317, 0, 0, 4634],[0, 0, 22312, 45977, 0, 0, 0, 35522, 0, -1, 12995, 0, 0, 0, 0, 0, 0, 0, 0, 36847, 0, 0, 0, 0, 0, 0, 31792, 0, 0, 33852, 0, 0, 0],[0, 0, 20486, 0, 0, 0, 0, 45741, 26226, 12995, -1, 21683, 0, 0, 0, 0, 0, 0, 16893, 31349, 0, 0, 0, 37811, 24486, 0, 31401, 45717, 31539, 0, 45922, 0, 0],[0, 0, 0, 0, 0, 0, 0, 0, 44467, 0, 21683, -1, 41271, 0, 0, 0, 0, 0, 0, 0, 0, 0, 42959, 39204, 0, 45274, 0, 0, 0, 0, 0, 31328, 0],[0, 0, 28588, 0, 0, 30432, 16211, 16759, 9169, 0, 0, 41271, -1, 27573, 0, 42501, 0, 0, 29743, 0, 0, 27213, 32356, 0, 41646, 0, 0, 0, 0, 0, 0, 0, 0],[45521, 0, 0, 41577, 42789, 0, 0, 0, 0, 0, 0, 0, 27573, -1, 0, 0, 0, 0, 0, 0, 0, 0, 44403, 0, 35890, 0, 44208, 0, 37254, 0, 0, 11971, 0],[0, 0, 0, 26461, 0, 0, 0, 0, 0, 0, 0, 0, 0, 0, -1, 0, 39305, 0, 43333, 0, 0, 0, 30079, 0, 0, 0, 0, 0, 0, 0, 0, 0, 0],[0, 0, 0, 0, 18194, 0, 29512, 0, 0, 0, 0, 0, 42501, 0, 0, -1, 26712, 0, 0, 0, 0, 0, 0, 40632, 0, 16078, 0, 0, 0, 0, 0, 36141, 0],[0, 0, 0, 0, 0, 0, 0, 0, 23793, 0, 0, 0, 0, 0, 39305, 26712, -1, 44881, 40815, 40900, 0, 40098, 43473, 0, 0, 31988, 0, 0, 38925, 0, 0, 0, 0],[0, 0, 0, 21042, 0, 0, 32962, 0, 19499, 0, 0, 0, 0, 0, 0, 0, 44881, -1, 0, 0, 26101, 29486, 0, 0, 0, 0, 0, 0, 0, 0, 39564, 0, 0],[0, 10109, 0, 42084, 0, 0, 0, 0, 36947, 0, 16893, 0, 29743, 0, 43333, 0, 40815, 0, -1, 0, 0, 0, 0, 0, 0, 27710, 0, 21141, 41976, 0, 34664, 0, 0],[43648, 0, 0, 0, 0, 0, 45600, 0, 28021, 36847, 31349, 0, 0, 0, 0, 0, 40900, 0, 0, -1, 0, 17858, 0, 33703, 0, 28038, 0, 27077, 23854, 0, 0, 0, 32630],[0, 0, 0, 0, 0, 0, 0, 0, 0, 0, 0, 0, 0, 0, 0, 0, 0, 26101, 0, 0, -1, 0, 0, 0, 0, 0, 0, 38721, 0, 0, 0, 0, 32255],[42463, 0, 0, 0, 0, 0, 42066, 40574, 0, 0, 0, 0, 27213, 0, 0, 0, 40098, 29486, 0, 17858, 0, -1, 0, 27604, 0, 32697, 0, 0, 33025, 8233, 0, 0, 0],[0, 0, 23569, 0, 0, 0, 0, 0, 30310, 0, 0, 42959, 32356, 44403, 30079, 0, 43473, 0, 0, 0, 0, 0, -1, 0, 0, 0, 35716, 0, 0, 0, 12429, 0, 0],[35334, 0, 0, 43312, 37618, 0, 0, 41494, 0, 0, 37811, 39204, 0, 0, 0, 40632, 0, 0, 0, 33703, 0, 27604, 0, -1, 0, 0, 0, 0, 0, 36146, 0, 0, 0],[0, 37256, 0, 0, 0, 0, 0, 0, 0, 0, 24486, 0, 41646, 35890, 0, 0, 0, 0, 0, 0, 0, 0, 0, 0, -1, 0, 0, 0, 27081, 0, 38549, 0, 0],[0, 0, 0, 0, 18750, 0, 0, 0, 0, 0, 0, 45274, 0, 0, 0, 16078, 31988, 0, 27710, 28038, 0, 32697, 0, 0, 0, -1, 25326, 0, 5506, 0, 0, 0, 42287],[0, 0, 0, 0, 0, 29831, 0, 0, 0, 31792, 31401, 0, 0, 44208, 0, 0, 0, 0, 0, 0, 0, 0, 35716, 0, 0, 25326, -1, 0, 0, 0, 29937, 0, 0],[0, 0, 0, 39530, 0, 0, 14342, 0, 0, 0, 45717, 0, 0, 0, 0, 0, 0, 0, 21141, 27077, 38721, 0, 0, 0, 0, 0, 0, -1, 42662, 0, 0, 0, 41685],[39202, 25315, 0, 15038, 0, 0, 0, 0, 0, 0, 31539, 0, 0, 37254, 0, 0, 38925, 0, 41976, 23854, 0, 33025, 0, 0, 27081, 5506, 0, 42662, -1, 0, 0, 25012, 0],[31263, 0, 0, 0, 46162, 32350, 0, 0, 34317, 33852, 0, 0, 0, 0, 0, 0, 0, 0, 0, 0, 0, 8233, 0, 36146, 0, 0, 0, 0, 0, -1, 0, 22433, 0],[23637, 0, 0, 0, 29418, 0, 5272, 0, 0, 0, 45922, 0, 0, 0, 0, 0, 0, 39564, 34664, 0, 0, 0, 12429, 0, 38549, 0, 29937, 0, 0, 0, -1, 0, 0],[0, 0, 20397, 0, 0, 0, 30123, 0, 0, 0, 0, 31328, 0, 11971, 0, 36141, 0, 0, 0, 0, 0, 0, 0, 0, 0, 0, 0, 0, 25012, 22433, 0, -1, 0],[0, 45063, 0, 36684, 0, 14306, 0, 37534, 4634, 0, 0, 0, 0, 0, 0, 0, 0, 0, 0, 32630, 32255, 0, 0, 0, 0, 42287, 0, 41685, 0, 0, 0, 0, -1]]